     Program PWSCF v.6.3 starts on 13May2024 at  3:34:57

     K-points division:     npool     =       4
     R & G space division:  proc/nbgrp/npool/nimage =      36
     Waiting for input...
     Reading input from standard input
Warning: card &IONS ignored
Warning: card   UPSCALE           = 100.D0, ignored
Warning: card / ignored
Warning: card &CELL ignored
Warning: card   CELL_DYNAMICS     = 'BFGS' ignored
Warning: card   PRESS_CONV_THR    = 0.5D0 ignored
Warning: card / ignored

     Current dimensions of program PWSCF are:
     Max number of different atomic species (ntypx) = 10
     Max number of k-points (npk) =  40000
     Max angular momentum in pseudopotentials (lmaxx) =  3

     Found symmetry operation: I + ( -0.5000  0.0000  0.5000)
     This is a supercell, fractional translations are disabled

     Title:
     hfo

     bravais-lattice index     =            0
     lattice parameter (alat)  =       9.7503  a.u.
     unit-cell volume          =     900.2151 (a.u.)^3
     number of atoms/cell      =           12
     number of atomic types    =            2
     number of electrons       =        96.00
     number of Kohn-Sham states=           48
     kinetic-energy cutoff     =      50.0000  Ry
     charge density cutoff     =     200.0000  Ry
     convergence threshold     =      1.0E-10
     mixing beta               =       0.7000
     number of iterations used =            8  plain     mixing
     Exchange-correlation      = SLA  PZ   NOGX NOGC ( 1  1  0  0 0 0)

     celldm(1)=   9.750347  celldm(2)=   0.000000  celldm(3)=   0.000000
     celldm(4)=   0.000000  celldm(5)=   0.000000  celldm(6)=   0.000000

     crystal axes: (cart. coord. in units of alat)
               a(1) = (   1.000000   0.000000   0.000000 )
               a(2) = (   0.000000   0.939774   0.000000 )
               a(3) = (   0.000000   0.000000   1.033386 )

     reciprocal axes: (cart. coord. in units 2 pi/alat)
               b(1) = (  1.000000  0.000000  0.000000 )
               b(2) = (  0.000000  1.064086  0.000000 )
               b(3) = (  0.000000  0.000000  0.967692 )

     PseudoPot. # 1 for Hf read from file:
     ./hf.upf
     MD5 check sum: e51c1024c5e416e0162abb5a15a163bb
     Pseudo is Norm-conserving, Zval = 12.0
     Generated by new atomic code, or converted to UPF format
     Using radial grid of 1186 points,  3 beta functions with:
                l(1) =   0
                l(2) =   1
                l(3) =   2

     PseudoPot. # 2 for O  read from file:
     ./o.upf
     MD5 check sum: 0270b6b1be82508c31ee19fe2bef830b
     Pseudo is Norm-conserving, Zval =  6.0
     Generated by new atomic code, or converted to UPF format
     Using radial grid of 1130 points,  1 beta functions with:
                l(1) =   1

     atomic species   valence    mass     pseudopotential
        Hf            12.00   178.49000     Hf( 1.00)
        O              6.00    15.99940     O ( 1.00)

      4 Sym. Ops. (no inversion) found

                                    s                        frac. trans.

      isym =  1     identity

 cryst.   s( 1) = (     1          0          0      )
                  (     0          1          0      )
                  (     0          0          1      )

 cart.    s( 1) = (  1.0000000  0.0000000  0.0000000 )
                  (  0.0000000  1.0000000  0.0000000 )
                  (  0.0000000  0.0000000  1.0000000 )

      isym =  2     180 deg rotation - cart. axis [0,0,1]

[...]

      isym =  4     180 deg rotation - cart. axis [1,0,0]

 cryst.   s( 4) = (     1          0          0      )
                  (     0         -1          0      )
                  (     0          0         -1      )

 cart.    s( 4) = (  1.0000000  0.0000000  0.0000000 )
                  (  0.0000000 -1.0000000  0.0000000 )
                  (  0.0000000  0.0000000 -1.0000000 )

   Cartesian axes

     site n.     atom                  positions (alat units)
         1           Hf  tau(   1) = (   0.2500000   0.1993700   0.7750397  )
         2           Hf  tau(   2) = (   0.7500000   0.7404038   0.7750397  )
         3           Hf  tau(   3) = (   0.2500000   0.7404038   0.2583466  )
         4           Hf  tau(   4) = (   0.7500000   0.1993700   0.2583466  )
         5           O   tau(   5) = (   0.0000000   0.4698869   0.7750397  )
         6           O   tau(   6) = (   0.5000000   0.4698869   0.7750397  )
         7           O   tau(   7) = (   0.5000000   0.4698869   0.2583466  )
         8           O   tau(   8) = (   0.0000000   0.4698869   0.2583466  )
         9           O   tau(   9) = (   0.5000000   0.0000000   1.0333863  )
        10           O   tau(  10) = (   0.0000000   0.0000000   0.5166932  )
        11           O   tau(  11) = (   0.0000000   0.0000000   1.0333863  )
        12           O   tau(  12) = (   0.5000000   0.0000000   0.5166932  )

   Crystallographic axes

     site n.     atom                  positions (cryst. coord.)
         1           Hf  tau(   1) = (  0.2500000  0.2121468  0.7500000  )
         2           Hf  tau(   2) = (  0.7500000  0.7878532  0.7500000  )
         3           Hf  tau(   3) = (  0.2500000  0.7878532  0.2500000  )
         4           Hf  tau(   4) = (  0.7500000  0.2121468  0.2500000  )
         5           O   tau(   5) = (  0.0000000  0.5000000  0.7500000  )
         6           O   tau(   6) = (  0.5000000  0.5000000  0.7500000  )
         7           O   tau(   7) = (  0.5000000  0.5000000  0.2500000  )
         8           O   tau(   8) = (  0.0000000  0.5000000  0.2500000  )
         9           O   tau(   9) = (  0.5000000  0.0000000  1.0000000  )
        10           O   tau(  10) = (  0.0000000  0.0000000  0.5000000  )
        11           O   tau(  11) = (  0.0000000  0.0000000  1.0000000  )
        12           O   tau(  12) = (  0.5000000  0.0000000  0.5000000  )

     number of k points=    27
                       cart. coord. in units 2pi/alat
        k(    1) = (   0.0000000   0.0000000   0.0000000), wk =   0.0312500
        k(    2) = (   0.0000000   0.0000000   0.2419231), wk =   0.0625000
        k(    3) = (   0.0000000   0.0000000  -0.4838462), wk =   0.0312500
        k(    4) = (   0.0000000   0.2660215   0.0000000), wk =   0.0625000
        k(    5) = (   0.0000000   0.2660215   0.2419231), wk =   0.1250000
        k(    6) = (   0.0000000   0.2660215  -0.4838462), wk =   0.0625000
        k(    7) = (   0.0000000  -0.5320429   0.0000000), wk =   0.0312500
        k(    8) = (   0.0000000  -0.5320429   0.2419231), wk =   0.0625000
        k(    9) = (   0.0000000  -0.5320429  -0.4838462), wk =   0.0312500
        k(   10) = (   0.2500000   0.0000000   0.0000000), wk =   0.0625000
        k(   11) = (   0.2500000   0.0000000   0.2419231), wk =   0.1250000
        k(   12) = (   0.2500000   0.0000000  -0.4838462), wk =   0.0625000
        k(   13) = (   0.2500000   0.2660215   0.0000000), wk =   0.1250000
        k(   14) = (   0.2500000   0.2660215   0.2419231), wk =   0.2500000
        k(   15) = (   0.2500000   0.2660215  -0.4838462), wk =   0.1250000
        k(   16) = (   0.2500000  -0.5320429   0.0000000), wk =   0.0625000
        k(   17) = (   0.2500000  -0.5320429   0.2419231), wk =   0.1250000
        k(   18) = (   0.2500000  -0.5320429  -0.4838462), wk =   0.0625000
        k(   19) = (  -0.5000000   0.0000000   0.0000000), wk =   0.0312500
        k(   20) = (  -0.5000000   0.0000000   0.2419231), wk =   0.0625000
        k(   21) = (  -0.5000000   0.0000000  -0.4838462), wk =   0.0312500
        k(   22) = (  -0.5000000   0.2660215   0.0000000), wk =   0.0625000
        k(   23) = (  -0.5000000   0.2660215   0.2419231), wk =   0.1250000
        k(   24) = (  -0.5000000   0.2660215  -0.4838462), wk =   0.0625000
        k(   25) = (  -0.5000000  -0.5320429   0.0000000), wk =   0.0312500
        k(   26) = (  -0.5000000  -0.5320429   0.2419231), wk =   0.0625000
        k(   27) = (  -0.5000000  -0.5320429  -0.4838462), wk =   0.0312500

                       cryst. coord.
        k(    1) = (   0.0000000   0.0000000   0.0000000), wk =   0.0312500
        k(    2) = (   0.0000000   0.0000000   0.2500000), wk =   0.0625000
        k(    3) = (   0.0000000   0.0000000  -0.5000000), wk =   0.0312500
        k(    4) = (   0.0000000   0.2500000   0.0000000), wk =   0.0625000
        k(    5) = (   0.0000000   0.2500000   0.2500000), wk =   0.1250000
        k(    6) = (   0.0000000   0.2500000  -0.5000000), wk =   0.0625000
        k(    7) = (   0.0000000  -0.5000000   0.0000000), wk =   0.0312500
        k(    8) = (   0.0000000  -0.5000000   0.2500000), wk =   0.0625000
        k(    9) = (   0.0000000  -0.5000000  -0.5000000), wk =   0.0312500
        k(   10) = (   0.2500000   0.0000000   0.0000000), wk =   0.0625000
        k(   11) = (   0.2500000   0.0000000   0.2500000), wk =   0.1250000
        k(   12) = (   0.2500000   0.0000000  -0.5000000), wk =   0.0625000
        k(   13) = (   0.2500000   0.2500000   0.0000000), wk =   0.1250000
        k(   14) = (   0.2500000   0.2500000   0.2500000), wk =   0.2500000
        k(   15) = (   0.2500000   0.2500000  -0.5000000), wk =   0.1250000
        k(   16) = (   0.2500000  -0.5000000   0.0000000), wk =   0.0625000
        k(   17) = (   0.2500000  -0.5000000   0.2500000), wk =   0.1250000
        k(   18) = (   0.2500000  -0.5000000  -0.5000000), wk =   0.0625000
        k(   19) = (  -0.5000000   0.0000000   0.0000000), wk =   0.0312500
        k(   20) = (  -0.5000000   0.0000000   0.2500000), wk =   0.0625000
        k(   21) = (  -0.5000000   0.0000000  -0.5000000), wk =   0.0312500
        k(   22) = (  -0.5000000   0.2500000   0.0000000), wk =   0.0625000
        k(   23) = (  -0.5000000   0.2500000   0.2500000), wk =   0.1250000
        k(   24) = (  -0.5000000   0.2500000  -0.5000000), wk =   0.0625000
        k(   25) = (  -0.5000000  -0.5000000   0.0000000), wk =   0.0312500
        k(   26) = (  -0.5000000  -0.5000000   0.2500000), wk =   0.0625000
        k(   27) = (  -0.5000000  -0.5000000  -0.5000000), wk =   0.0312500

     Initial potential from superposition of free atoms

     starting charge   81.99999, renormalised to   96.00000
     Starting wfcs are   68 randomized atomic wfcs

     Self-consistent Calculation

     iteration #  1     ecut=    50.00 Ry     beta= 0.70
     Davidson diagonalization with overlap
     ethr =  1.00E-02,  avg # of iterations =  2.0

     total energy              =    -650.01213468 Ry
     Harris-Foulkes estimate   =    -653.50812670 Ry
     estimated scf accuracy    <       4.75354546 Ry

[...]

     total energy              =    -650.98057017 Ry
     Harris-Foulkes estimate   =    -650.98057017 Ry
     estimated scf accuracy    <          5.2E-10 Ry

     iteration # 12     ecut=    50.00 Ry     beta= 0.70
     Davidson diagonalization with overlap
     ethr =  5.43E-13,  avg # of iterations =  3.0

     End of self-consistent calculation

          k = 0.0000 0.0000 0.0000 (  5367 PWs)   bands (ev):

   -48.2017 -48.1799 -48.1745 -48.1668 -18.4260 -18.3931 -18.3273 -18.1224
   -18.1059 -17.9711 -17.9672 -17.8489 -17.8420 -17.8374 -17.7962 -17.7763
    -7.1728  -6.0001  -5.8838  -5.7189  -4.1310  -4.0717  -3.9737  -3.7508
     4.7636   5.0962   5.8685   5.9744   6.2919   6.9316   7.1333   7.1966
     7.8238   8.0888   8.1235   8.1999   8.2366   8.3574   8.3679   8.5178
     8.5939   8.5984   9.8739  10.2049  11.0287  11.3425  11.6331  11.7688

     occupation numbers
     1.0000   1.0000   1.0000   1.0000   1.0000   1.0000   1.0000   1.0000
     1.0000   1.0000   1.0000   1.0000   1.0000   1.0000   1.0000   1.0000
     1.0000   1.0000   1.0000   1.0000   1.0000   1.0000   1.0000   1.0000
     1.0000   1.0000   1.0000   1.0000   1.0000   1.0000   1.0000   1.0000
     1.0000   1.0000   1.0000   1.0000   1.0000   1.0000   1.0000   1.0000
     1.0000   1.0000   1.0000   1.0000   1.0000   1.0000   1.0000   1.0000

[...]

          k = 0.2500-0.5320-0.4838 (  5368 PWs)   bands (ev):

[...]

          k =-0.5000 0.0000 0.0000 (  5406 PWs)   bands (ev):

[...]

          k =-0.5000-0.5320-0.4838 (  5376 PWs)   bands (ev):

   -48.1807 -48.1807 -48.1807 -48.1807 -18.3732 -18.3732 -18.3732 -18.3732
   -17.9041 -17.9041 -17.9041 -17.9041 -17.8336 -17.8336 -17.8336 -17.8336
    -6.2156  -6.2155  -6.2155  -6.2155  -3.9755  -3.9755  -3.9755  -3.9755
     6.4660   6.4660   6.4660   6.4660   6.7391   6.7391   6.7391   6.7391
     7.4482   7.4482   7.4482   7.4482   8.5182   8.5183   8.5183   8.5183
     9.4699   9.4700   9.4700   9.4700  10.0065  10.0065  10.0065  10.0065

     occupation numbers
     1.0000   1.0000   1.0000   1.0000   1.0000   1.0000   1.0000   1.0000
     1.0000   1.0000   1.0000   1.0000   1.0000   1.0000   1.0000   1.0000
     1.0000   1.0000   1.0000   1.0000   1.0000   1.0000   1.0000   1.0000
     1.0000   1.0000   1.0000   1.0000   1.0000   1.0000   1.0000   1.0000
     1.0000   1.0000   1.0000   1.0000   1.0000   1.0000   1.0000   1.0000
     1.0000   1.0000   1.0000   1.0000   1.0000   1.0000   1.0000   1.0000

     highest occupied level (ev):    11.7688

!    total energy              =    -650.98057017 Ry
     Harris-Foulkes estimate   =    -650.98057017 Ry
     estimated scf accuracy    <          8.6E-11 Ry

     The total energy is the sum of the following terms:

     one-electron contribution =    -143.20176676 Ry
     hartree contribution      =     120.79362792 Ry
     xc contribution           =    -103.54745495 Ry
     ewald contribution        =    -525.02497638 Ry

     convergence has been achieved in  12 iterations

     Forces acting on atoms (cartesian axes, Ry/au):

     atom    1 type  1   force =    -0.00000964    0.00000274    0.00001281
     atom    2 type  1   force =     0.00000964   -0.00000274    0.00001281
     atom    3 type  1   force =    -0.00000964   -0.00000274   -0.00001281
     atom    4 type  1   force =     0.00000964    0.00000274   -0.00001281
     atom    5 type  2   force =     0.00000000    0.00000000    0.00004682
     atom    6 type  2   force =     0.00000000    0.00000000    0.00004586
     atom    7 type  2   force =     0.00000000    0.00000000   -0.00004586
     atom    8 type  2   force =     0.00000000    0.00000000   -0.00004682
     atom    9 type  2   force =     0.00000000    0.00000000    0.00000000
     atom   10 type  2   force =     0.00000000    0.00000000    0.00000000
     atom   11 type  2   force =     0.00000000    0.00000000    0.00000000
     atom   12 type  2   force =     0.00000000    0.00000000    0.00000000
     The non-local contrib.  to forces
     atom    1 type  1   force =    -0.00000298   -0.16004430    0.00000549
     atom    2 type  1   force =     0.00000298    0.16004430    0.00000549
     atom    3 type  1   force =    -0.00000298    0.16004430   -0.00000549
     atom    4 type  1   force =     0.00000298   -0.16004430   -0.00000549
     atom    5 type  2   force =     0.00000000    0.00000000    0.00004514
     atom    6 type  2   force =     0.00000000    0.00000000    0.00004348
     atom    7 type  2   force =     0.00000000    0.00000000   -0.00004348
     atom    8 type  2   force =     0.00000000    0.00000000   -0.00004514
     atom    9 type  2   force =     0.00000000    0.00000000    0.00000000
     atom   10 type  2   force =     0.00000000    0.00000000    0.00000000
     atom   11 type  2   force =     0.00000000    0.00000000    0.00000000
     atom   12 type  2   force =     0.00000000    0.00000000    0.00000000
     The ionic contribution  to forces
     atom    1 type  1   force =     0.00000000    1.68559978   -0.00000000
     atom    2 type  1   force =    -0.00000000   -1.68559978   -0.00000000
     atom    3 type  1   force =     0.00000000   -1.68559978    0.00000000
     atom    4 type  1   force =     0.00000000    1.68559978    0.00000000
     atom    5 type  2   force =    -0.00000000    0.00000000   -0.00000000
     atom    6 type  2   force =    -0.00000000    0.00000000    0.00000000
     atom    7 type  2   force =     0.00000000    0.00000000    0.00000000
     atom    8 type  2   force =    -0.00000000   -0.00000000    0.00000000
     atom    9 type  2   force =     0.00000000    0.00000000    0.00000000
     atom   10 type  2   force =     0.00000000    0.00000000    0.00000000
     atom   11 type  2   force =    -0.00000000   -0.00000000   -0.00000000
     atom   12 type  2   force =     0.00000000    0.00000000    0.00000000
     The local contribution  to forces
     atom    1 type  1   force =    -0.00000853   -1.52554149    0.00001308
     atom    2 type  1   force =     0.00000853    1.52554149    0.00001308
     atom    3 type  1   force =    -0.00000853    1.52554149   -0.00001308
     atom    4 type  1   force =     0.00000853   -1.52554149   -0.00001308
     atom    5 type  2   force =     0.00000000    0.00000000    0.00000321
     atom    6 type  2   force =     0.00000000    0.00000000    0.00000397
     atom    7 type  2   force =     0.00000000    0.00000000   -0.00000397
     atom    8 type  2   force =     0.00000000   -0.00000000   -0.00000321
     atom    9 type  2   force =     0.00000000    0.00000000    0.00000000
     atom   10 type  2   force =     0.00000000    0.00000000    0.00000000
     atom   11 type  2   force =     0.00000000    0.00000000    0.00000000
     atom   12 type  2   force =     0.00000000    0.00000000    0.00000000
     The core correction contribution to forces
     atom    1 type  1   force =     0.00000000    0.00000000    0.00000000
     atom    2 type  1   force =     0.00000000    0.00000000    0.00000000
     atom    3 type  1   force =     0.00000000    0.00000000    0.00000000
     atom    4 type  1   force =     0.00000000    0.00000000    0.00000000
     atom    5 type  2   force =     0.00000000    0.00000000    0.00000000
     atom    6 type  2   force =     0.00000000    0.00000000    0.00000000
     atom    7 type  2   force =     0.00000000    0.00000000    0.00000000
     atom    8 type  2   force =     0.00000000    0.00000000    0.00000000
     atom    9 type  2   force =     0.00000000    0.00000000    0.00000000
     atom   10 type  2   force =     0.00000000    0.00000000    0.00000000
     atom   11 type  2   force =     0.00000000    0.00000000    0.00000000
     atom   12 type  2   force =     0.00000000    0.00000000    0.00000000
     The Hubbard contrib.    to forces
     atom    1 type  1   force =     0.00000000    0.00000000    0.00000000
     atom    2 type  1   force =     0.00000000    0.00000000    0.00000000
     atom    3 type  1   force =     0.00000000    0.00000000    0.00000000
     atom    4 type  1   force =     0.00000000    0.00000000    0.00000000
     atom    5 type  2   force =     0.00000000    0.00000000    0.00000000
     atom    6 type  2   force =     0.00000000    0.00000000    0.00000000
     atom    7 type  2   force =     0.00000000    0.00000000    0.00000000
     atom    8 type  2   force =     0.00000000    0.00000000    0.00000000
     atom    9 type  2   force =     0.00000000    0.00000000    0.00000000
     atom   10 type  2   force =     0.00000000    0.00000000    0.00000000
     atom   11 type  2   force =     0.00000000    0.00000000    0.00000000
     atom   12 type  2   force =     0.00000000    0.00000000    0.00000000
     The SCF correction term to forces
     atom    1 type  1   force =     0.00000188   -0.00001125   -0.00000576
     atom    2 type  1   force =    -0.00000188    0.00001125   -0.00000576
     atom    3 type  1   force =     0.00000188    0.00001125    0.00000576
     atom    4 type  1   force =    -0.00000188   -0.00001125    0.00000576
     atom    5 type  2   force =     0.00000000    0.00000000   -0.00000154
     atom    6 type  2   force =    -0.00000000    0.00000000   -0.00000160
     atom    7 type  2   force =     0.00000000    0.00000000    0.00000160
     atom    8 type  2   force =     0.00000000    0.00000000    0.00000154
     atom    9 type  2   force =     0.00000000   -0.00000000    0.00000000
     atom   10 type  2   force =    -0.00000000   -0.00000000   -0.00000000
     atom   11 type  2   force =    -0.00000000   -0.00000000   -0.00000000
     atom   12 type  2   force =     0.00000000   -0.00000000    0.00000000

     Total force =     0.000098     Total SCF correction =     0.000026
     SCF correction compared to forces is large: reduce conv_thr to get better values

     Computing stress (Cartesian axis) and pressure

          total   stress  (Ry/bohr**3)                   (kbar)     P=    0.65
   0.00000326   0.00000000   0.00000000          0.48      0.00      0.00
   0.00000000  -0.00000056   0.00000000          0.00     -0.08      0.00
   0.00000000   0.00000000   0.00001046          0.00      0.00      1.54

     kinetic stress (kbar)  31179.93      0.00      0.00
                                0.00  31180.01      0.00
                                0.00      0.00  31131.08

     local   stress (kbar)   6534.83      0.00     -0.00
                                0.00  13803.49     -0.00
                               -0.00     -0.00  20840.44

     nonloc. stress (kbar) -17615.88      0.00      0.00
                                0.00 -17637.27      0.00
                                0.00      0.00 -17608.48

     hartree stress (kbar)   8802.78      0.00      0.00
                                0.00   6302.71      0.00
                                0.00      0.00   4633.51

     exc-cor stress (kbar)  -5250.13      0.00      0.00
                                0.00  -5250.13      0.00
                                0.00      0.00  -5250.13

     corecor stress (kbar)      0.00      0.00      0.00
                                0.00      0.00      0.00
                                0.00      0.00      0.00

     ewald   stress (kbar) -23651.06     -0.00      0.00
                               -0.00 -28398.90     -0.00
                                0.00     -0.00 -33744.89

     hubbard stress (kbar)      0.00      0.00      0.00
                                0.00      0.00      0.00
                                0.00      0.00      0.00

     london  stress (kbar)      0.00      0.00      0.00
                                0.00      0.00      0.00
                                0.00      0.00      0.00

     DFT-D3  stress (kbar)      0.00      0.00      0.00
                                0.00      0.00      0.00
                                0.00      0.00      0.00

     XDM     stress (kbar)      0.00      0.00      0.00
                                0.00      0.00      0.00
                                0.00      0.00      0.00

     dft-nl  stress (kbar)      0.00      0.00      0.00
                                0.00      0.00      0.00
                                0.00      0.00      0.00

     TS-vdW  stress (kbar)      0.00      0.00      0.00
                                0.00      0.00      0.00
                                0.00      0.00      0.00

     Writing output data file hfo.save/

     General routines

     Parallel routines

   This run was terminated on:   3:35: 6  13May2024

   JOB DONE.